AoPS/c6h254986p1393079.smt2
(set-info :smt-lib-version 2.6)
(set-logic AUFNIRA)
(set-info :source |
Generated by: Mirek Olšák, Mikoláš Janota, Chad E. Brown
Generated on: 2024-04-14
Application: Mathematics challenges involving function synthesis
From a collection by: Vít Musil
Source url: https://prase.cz/library/FunkcionalniRovniceVM/FunkcionalniRovniceVM.pdf
Original source: c6h254986p1393079
|)
(set-info :license "https://creativecommons.org/licenses/by-nc/4.0/")
(set-info :category "crafted")
(set-info :status sat)

; Header
(declare-const a Real)
(declare-const b Real)
(declare-fun f (Real) Real)

; Equations
(assert (forall ((x Real) (y Real)) (=> (distinct y 0.0) (= (f (* 2.0 x)) (+ (* a (f x)) (* b x))))))
(assert (forall ((x Real) (y Real)) (= (* (f x) (f y)) (+ (f (* x y)) (f (/ x y))))))

; Find all possible f

(check-sat)
(exit)
(get-model)
